2353,2354,2355,2356,2381,2382,2383,2384,2744,2745,2746,2747,2748,2772,2773,2774,2775,2776,3136,3137,3138,3139,3140,3164,3165,3166,3167,3168,3528,3529,3530,3556,3920;1992,1993,1994,1995,2021,2022,2357,2358,2385,2386,2387,2412,2413,2414,2415,2749,2777;1211,1239,1602,1603,1604,1630,1631,2023;1212,1605,1632,1633,1996,2024;428,820,821,848,849,1213,1240,1241,1267,1268,1269,1660;429,430,431,822,823,850;432,851,852,853,881,1242,1243;40,41,42,433,461,489